c FILE: i160-102

c SOURCE: From steinlib

c DESCRIPTION: Steinlib instance with 160 nodes and 240 edges.

p edge 160 240
e 1 55
e 1 78
e 1 131
e 1 133
e 1 151
e 2 85
e 2 100
e 3 16
e 3 77
e 3 94
e 3 153
e 4 27
e 4 89
e 5 18
e 5 96
e 5 100
e 5 139
e 6 61
e 6 106
e 6 138
e 7 28
e 7 41
e 7 55
e 7 75
e 7 121
e 7 131
e 8 32
e 8 101
e 9 19
e 9 40
e 9 123
e 9 126
e 9 151
e 9 152
e 10 83
e 10 92
e 10 117
e 11 27
e 11 51
e 12 45
e 12 75
e 12 154
e 13 157
e 14 18
e 14 23
e 14 55
e 14 66
e 14 76
e 14 83
e 14 110
e 14 122
e 15 53
e 15 87
e 15 122
e 16 106
e 16 129
e 17 39
e 17 69
e 17 104
e 20 90
e 20 111
e 20 142
e 21 70
e 22 47
e 22 106
e 22 129
e 23 41
e 24 55
e 24 63
e 25 63
e 25 73
e 25 74
e 25 140
e 26 79
e 26 126
e 27 34
e 27 40
e 27 70
e 27 80
e 27 150
e 28 68
e 28 75
e 28 87
e 28 102
e 28 118
e 28 145
e 29 30
e 29 143
e 30 38
e 30 104
e 31 58
e 31 68
e 31 69
e 31 84
e 31 118
e 32 64
e 33 87
e 33 94
e 35 63
e 35 87
e 35 90
e 35 100
e 35 103
e 35 117
e 35 156
e 36 89
e 36 119
e 36 143
e 37 88
e 37 97
e 37 115
e 37 149
e 37 159
e 38 104
e 39 44
e 39 50
e 39 65
e 39 75
e 39 97
e 39 104
e 40 78
e 40 126
e 40 137
e 40 140
e 41 57
e 41 62
e 41 117
e 41 122
e 41 154
e 42 49
e 42 151
e 43 66
e 43 89
e 44 83
e 44 107
e 44 112
e 45 78
e 45 123
e 45 146
e 46 60
e 46 68
e 46 118
e 46 154
e 48 66
e 49 86
e 49 90
e 49 113
e 49 134
e 49 158
e 50 87
e 52 68
e 52 136
e 53 81
e 53 83
e 53 89
e 53 153
e 54 117
e 54 130
e 55 136
e 55 138
e 56 114
e 56 144
e 58 155
e 59 100
e 59 105
e 59 128
e 60 94
e 62 96
e 63 156
e 64 79
e 66 86
e 67 118
e 68 137
e 68 141
e 68 142
e 69 133
e 70 138
e 71 155
e 72 100
e 72 108
e 72 143
e 73 78
e 73 92
e 74 77
e 74 130
e 74 154
e 75 124
e 76 151
e 78 81
e 78 87
e 78 124
e 78 139
e 78 148
e 78 157
e 79 118
e 80 118
e 80 129
e 82 117
e 83 108
e 83 119
e 85 98
e 85 151
e 90 107
e 91 160
e 92 135
e 93 144
e 95 137
e 97 110
e 99 100
e 101 143
e 103 107
e 103 109
e 103 159
e 104 142
e 104 156
e 105 116
e 106 138
e 110 136
e 111 126
e 111 127
e 116 118
e 117 128
e 119 139
e 120 130
e 120 153
e 121 154
e 122 160
e 123 151
e 125 148
e 127 140
e 127 142
e 132 144
e 132 152
e 135 142
e 138 156
e 143 147
e 144 159
e 147 160
e 151 157
e 154 156
